(set-logic QF_S)
(declare-fun var0 () String)
(assert (str.in.re var0 (re.++ (re.+ (re.union (re.+ (re.+ (re.union (re.* (re.+ (re.union (re.+ (re.* (re.* (re.union (re.* (str.to.re "00")) (re.* (str.to.re "111")))))) (re.+ (re.* (re.* (re.union (re.* (str.to.re "222")) (re.* (str.to.re "333"))))))))) (re.* (re.+ (re.+ (re.union (re.union (re.union (re.union (re.union (str.to.re "444") (str.to.re "555")) (re.union (str.to.re "6") (str.to.re "777"))) (re.union (re.union (str.to.re "88") (str.to.re "99")) (re.union (str.to.re "aaa") (str.to.re "bbb")))) (re.union (re.* (re.* (str.to.re "c"))) (re.* (re.+ (str.to.re "d"))))) (re.union (re.* (re.* (re.+ (str.to.re "e")))) (re.* (re.+ (re.+ (str.to.re "f")))))))))))) (re.+ (re.+ (re.union (re.union (re.union (re.+ (re.union (re.+ (re.* (re.+ (re.+ (str.to.re "ggg"))))) (re.+ (re.union (re.union (re.* (str.to.re "h")) (re.* (str.to.re "i"))) (re.union (re.* (str.to.re "j")) (re.* (str.to.re "k"))))))) (re.+ (re.+ (re.union (re.* (re.+ (re.+ (str.to.re "lll")))) (re.* (re.* (re.+ (str.to.re "mm")))))))) (re.union (re.union (re.+ (re.union (re.union (re.+ (re.* (str.to.re "nn"))) (re.+ (re.union (str.to.re "ooo") (str.to.re "p")))) (re.union (re.+ (re.+ (str.to.re "qqq"))) (re.+ (re.* (str.to.re "rr")))))) (re.+ (re.+ (re.* (re.+ (re.union (str.to.re "s") (str.to.re "tt"))))))) (re.union (re.+ (re.* (re.+ (re.+ (re.* (str.to.re "uuu")))))) (re.+ (re.+ (re.* (re.union (re.* (str.to.re "vv")) (re.* (str.to.re "w"))))))))) (re.union (re.+ (re.* (re.union (re.union (re.+ (re.union (re.+ (str.to.re "xxx")) (re.+ (str.to.re "yyy")))) (re.+ (re.* (re.+ (str.to.re "z"))))) (re.union (re.* (re.union (re.union (str.to.re "AAA") (str.to.re "B")) (re.union (str.to.re "CCC") (str.to.re "D")))) (re.* (re.union (re.union (str.to.re "EEE") (str.to.re "F")) (re.union (str.to.re "GGG") (str.to.re "HH")))))))) (re.+ (re.+ (re.+ (re.* (re.+ (re.union (re.* (str.to.re "III")) (re.* (str.to.re "JJJ")))))))))))))) (re.+ (re.union (re.union (re.* (re.+ (re.union (re.* (re.+ (re.union (re.union (re.* (re.union (re.union (str.to.re "KKK") (str.to.re "L")) (re.union (str.to.re "M") (str.to.re "NNN")))) (re.* (re.+ (re.* (str.to.re "OO"))))) (re.union (re.union (re.* (re.+ (str.to.re "PP"))) (re.* (re.+ (str.to.re "Q")))) (re.union (re.+ (re.* (str.to.re "R"))) (re.+ (re.* (str.to.re "S")))))))) (re.* (re.union (re.+ (re.union (re.* (re.* (re.* (str.to.re "TTT")))) (re.* (re.* (re.union (str.to.re "U") (str.to.re "V")))))) (re.+ (re.* (re.+ (re.union (re.+ (str.to.re "WW")) (re.+ (str.to.re "XXX"))))))))))) (re.* (re.* (re.* (re.* (re.+ (re.+ (re.* (re.+ (re.union (re.* (str.to.re "Y")) (re.* (str.to.re "ZZZ")))))))))))) (re.union (re.* (re.union (re.+ (re.union (re.union (re.+ (re.* (re.+ (re.* (re.* (str.to.re "!!")))))) (re.+ (re.union (re.union (re.+ (re.+ (str.to.re """"""""))) (re.+ (re.+ (str.to.re "#")))) (re.union (re.union (re.+ (str.to.re "$$$")) (re.+ (str.to.re "%%%"))) (re.union (re.union (str.to.re "&&") (str.to.re "'''")) (re.union (str.to.re "(((") (str.to.re ")))"))))))) (re.union (re.* (re.union (re.* (re.union (re.+ (str.to.re "***")) (re.+ (str.to.re "+++")))) (re.* (re.+ (re.union (str.to.re ",,") (str.to.re "-")))))) (re.* (re.union (re.* (re.* (re.union (str.to.re "...") (str.to.re "//")))) (re.* (re.union (re.+ (str.to.re ":::")) (re.+ (str.to.re ";"))))))))) (re.+ (re.* (re.+ (re.* (re.union (re.union (re.union (re.union (str.to.re "<") (str.to.re "=")) (re.union (str.to.re ">>") (str.to.re "?"))) (re.union (re.* (str.to.re "@")) (re.* (str.to.re "[[[")))) (re.union (re.* (re.union (str.to.re "\\\\") (str.to.re "]]]"))) (re.* (re.+ (str.to.re "^^^"))))))))))) (re.* (re.* (re.* (re.* (re.union (re.* (re.union (re.+ (re.+ (re.* (str.to.re "___")))) (re.+ (re.union (re.+ (str.to.re "``")) (re.+ (str.to.re "{{{")))))) (re.* (re.union (re.union (re.* (re.union (str.to.re "|") (str.to.re "}}}"))) (re.* (re.* (str.to.re "~~~")))) (re.union (re.union (re.union (str.to.re "00") (str.to.re "1")) (re.union (str.to.re "222") (str.to.re "333"))) (re.union (re.* (str.to.re "4")) (re.* (str.to.re "55")))))))))))))))))
(assert (<= 15 (str.len var0)))
(check-sat)